\ Model RRP
\ LP format - for model browsing. Use MPS format to capture full model detail.
Maximize
  0 x_kimjn[0,1,0,1,0] + 0 x_kimjn[0,2,0,2,0] + 0 x_kimjn[0,3,0,1,0]
   + 0 x_kimjn[0,3,0,2,0] + 0 x_kimjn[0,3,0,3,0] + 0 x_kimjn[0,4,0,1,0]
   + 0 x_kimjn[0,4,0,2,0] + 0 x_kimjn[0,4,0,4,0] + z_ki[0,1] + z_ki[0,2]
Subject To
 R0: xs_kim[0,1,0] + xs_kim[0,2,0] + xod_k[0] = 1
 R1: xe_kjn[0,3,0] + xe_kjn[0,4,0] + xod_k[0] = 1
 R2: - x_kimjn[0,1,0,2,0] - x_kimjn[0,1,0,3,0] - x_kimjn[0,1,0,4,0]
   + x_kimjn[0,2,0,1,0] + xs_kim[0,1,0] = 0
 R3: x_kimjn[0,1,0,2,0] - x_kimjn[0,2,0,1,0] - x_kimjn[0,2,0,3,0]
   - x_kimjn[0,2,0,4,0] + xs_kim[0,2,0] = 0
 R4: - x_kimjn[0,1,0,3,0] - x_kimjn[0,2,0,3,0] + x_kimjn[0,3,0,4,0]
   - x_kimjn[0,4,0,3,0] + xe_kjn[0,3,0] = 0
 R5: - x_kimjn[0,1,0,4,0] - x_kimjn[0,2,0,4,0] - x_kimjn[0,3,0,4,0]
   + x_kimjn[0,4,0,3,0] + xe_kjn[0,4,0] = 0
 R6: x_kimjn[0,2,0,1,0] + xs_kim[0,1,0] - y_kim[0,1,0] = 0
 R7: x_kimjn[0,1,0,2,0] + xs_kim[0,2,0] - y_kim[0,2,0] = 0
 R8: x_kimjn[0,3,0,4,0] + xe_kjn[0,3,0] - y_kim[0,3,0] = 0
 R9: x_kimjn[0,4,0,3,0] + xe_kjn[0,4,0] - y_kim[0,4,0] = 0
 R10: y_kim[0,1,0] <= 1
 R11: y_kim[0,2,0] <= 1
 R12: y_kim[0,3,0] <= 1
 R13: y_kim[0,4,0] <= 1
 R14: x_kimjn[0,2,0,1,0] + xs_kim[0,1,0] - z_ki[0,1] = 0
 R15: x_kimjn[0,1,0,2,0] + xs_kim[0,2,0] - z_ki[0,2] = 0
 R16: xod_k[0] = 0
 R17: x_kimjn[0,1,0,2,0] + 2 x_kimjn[0,1,0,3,0] + x_kimjn[0,1,0,4,0]
   + x_kimjn[0,2,0,3,0] + x_kimjn[0,4,0,3,0] = 0
 R18: x_kimjn[0,1,0,4,0] + x_kimjn[0,2,0,1,0] + x_kimjn[0,2,0,3,0]
   + 2 x_kimjn[0,2,0,4,0] + x_kimjn[0,3,0,4,0] = 0
 R19: t_ki[0,1,0] - t_ki[0,3,0] <= -48
 R20: t_ki[0,1,0] - t_ki[0,3,0] <= -48
 R21: t_ki[0,2,0] - t_ki[0,4,0] <= -66
 R22: t_ki[0,2,0] - t_ki[0,4,0] <= -66
 R23: 487.5 x_kimjn[0,1,0,2,0] + t_ki[0,1,0] - t_ki[0,2,0] <= 464.5
 R24: 487.5 x_kimjn[0,1,0,3,0] + t_ki[0,1,0] - t_ki[0,3,0] <= 439.5
 R25: 487.5 x_kimjn[0,1,0,4,0] + t_ki[0,1,0] - t_ki[0,4,0] <= 439.5
 R26: 487.5 x_kimjn[0,2,0,1,0] - t_ki[0,1,0] + t_ki[0,2,0] <= 463.5
 R27: 487.5 x_kimjn[0,2,0,3,0] + t_ki[0,2,0] - t_ki[0,3,0] <= 421.5
 R28: 487.5 x_kimjn[0,2,0,4,0] + t_ki[0,2,0] - t_ki[0,4,0] <= 421.5
 R29: 487.5 x_kimjn[0,3,0,4,0] + t_ki[0,3,0] - t_ki[0,4,0] <= 487.4
 R30: 487.5 x_kimjn[0,4,0,3,0] - t_ki[0,3,0] + t_ki[0,4,0] <= 487.4
 R31: - 487.5 x_kimjn[0,1,0,2,0] + t_ki[0,1,0] - t_ki[0,2,0] >= -510.5
 R32: - 487.5 x_kimjn[0,1,0,3,0] + t_ki[0,1,0] - t_ki[0,3,0] >= -535.5
 R33: - 487.5 x_kimjn[0,1,0,4,0] + t_ki[0,1,0] - t_ki[0,4,0] >= -535.5
 R34: - 487.5 x_kimjn[0,2,0,1,0] - t_ki[0,1,0] + t_ki[0,2,0] >= -511.5
 R35: - 487.5 x_kimjn[0,2,0,3,0] + t_ki[0,2,0] - t_ki[0,3,0] >= -553.5
 R36: - 487.5 x_kimjn[0,2,0,4,0] + t_ki[0,2,0] - t_ki[0,4,0] >= -553.5
 R37: - 487.5 x_kimjn[0,3,0,4,0] + t_ki[0,3,0] - t_ki[0,4,0] >= -487.6
 R38: - 487.5 x_kimjn[0,4,0,3,0] - t_ki[0,3,0] + t_ki[0,4,0] >= -487.6
 R39: 487.5 xs_kim[0,1,0] + t_ki[0,0,0] - t_ki[0,1,0] <= 463.5
 R40: 487.5 xs_kim[0,2,0] + t_ki[0,0,0] - t_ki[0,2,0] <= 487.4
 R41: - 487.5 xs_kim[0,1,0] + t_ki[0,0,0] - t_ki[0,1,0] >= -511.5
 R42: - 487.5 xs_kim[0,2,0] + t_ki[0,0,0] - t_ki[0,2,0] >= -487.6
 R43: 487.5 xe_kjn[0,3,0] + t_ki[0,3,0] - t_ki[0,5,0] <= 487.4
 R44: 487.5 xe_kjn[0,4,0] + t_ki[0,4,0] - t_ki[0,5,0] <= 487.4
 R45: - 487.5 xe_kjn[0,3,0] + t_ki[0,3,0] - t_ki[0,5,0] >= -487.6
 R46: - 487.5 xe_kjn[0,4,0] + t_ki[0,4,0] - t_ki[0,5,0] >= -487.6
 R47: t_ki[0,3,0] >= 119.9
 R48: t_ki[0,4,0] >= 119.9
 R49: t_ki[0,3,0] <= 149.9
 R50: t_ki[0,4,0] <= 149.9
 R51: t_ki[0,5,0] >= 120
 R52: t_ki[0,5,0] <= 150
 R53: - t_ki[0,1,0] + t_ki[0,3,0] <= 119.0666666666667
 R54: - t_ki[0,2,0] + t_ki[0,4,0] <= 164.6666666666667
 R55: - t_ki[0,0,0] + t_ki[0,5,0] <= 195
 R56: 0.1 y_kim[0,1,0] <= 0
 R57: 0.1 y_kim[0,2,0] <= 0
 R58: - 0.1 y_kim[0,3,0] >= 0
 R59: - 0.1 y_kim[0,4,0] >= 0
 R60: z_ki[0,1] + z_ki[0,2] <= 4
Bounds
Binaries
 x_kimjn[0,1,0,1,0] x_kimjn[0,1,0,2,0] x_kimjn[0,1,0,3,0]
 x_kimjn[0,1,0,4,0] x_kimjn[0,2,0,1,0] x_kimjn[0,2,0,2,0]
 x_kimjn[0,2,0,3,0] x_kimjn[0,2,0,4,0] x_kimjn[0,3,0,1,0]
 x_kimjn[0,3,0,2,0] x_kimjn[0,3,0,3,0] x_kimjn[0,3,0,4,0]
 x_kimjn[0,4,0,1,0] x_kimjn[0,4,0,2,0] x_kimjn[0,4,0,3,0]
 x_kimjn[0,4,0,4,0] xs_kim[0,1,0] xs_kim[0,2,0] xe_kjn[0,3,0] xe_kjn[0,4,0]
 xod_k[0] y_kim[0,1,0] y_kim[0,2,0] y_kim[0,3,0] y_kim[0,4,0] z_ki[0,1]
 z_ki[0,2]
End
